NPROCS=0
This instance is clustered!
Gurobi Optimizer version 9.0.0 build v9.0.0rc2 (linux64)
Optimize a model with 46 rows, 530 columns and 1058 nonzeros
Model fingerprint: 0x306e8016
Variable types: 1 continuous, 529 integer (529 binary)
Coefficient statistics:
  Matrix range     [1e+00, 1e+00]
  Objective range  [1e+00, 4e+02]
  Bounds range     [1e+00, 1e+00]
  RHS range        [1e+00, 1e+00]
Presolve removed 2 rows and 66 columns
Presolve time: 0.00s
Presolved: 44 rows, 464 columns, 926 nonzeros
Variable types: 1 continuous, 463 integer (463 binary)

Root relaxation: objective 5.790992e+02, 38 iterations, 0.00 seconds

    Nodes    |    Current Node    |     Objective Bounds      |     Work
 Expl Unexpl |  Obj  Depth IntInf | Incumbent    BestBd   Gap | It/Node Time

     0     0  645.12242    0   16          -  645.12242      -     -    0s
 done with super cut 0
     0     0  902.47109    0   50          -  902.47109      -     -    0s
 done with super cut 1
 done with super cut 2
 done with super cut 3
 done with super cut 4
     0     2  908.56882    0   51          -  908.56882      -     -    2s
 done with super cut 5
 done with super cut 6
 done with super cut 7
 done with super cut 8
 done with super cut 9
    51    59  985.86527    6   10          -  969.61617      -   9.7    9s
 done with super cut 10
   207   223 1106.11349   18    4          -  983.25449      -   7.6   12s
*  657   556              18    1372.3682196  988.58921  28.0%   7.5   12s
*  725   627              29    1295.8070580  988.58921  23.7%   7.5   12s
* 1586  1052              28    1290.5048157  998.87231  22.6%   7.7   12s
H 2831  1655                    1258.6193230 1037.70257  17.6%   7.7   12s
H 3359  1775                    1184.9710702 1037.70257  12.4%   8.4   14s
  4035  1749 1132.53481   65   27 1184.97107 1037.70257  12.4%   9.1   15s

Cutting planes:
  Gomory: 7
  Flow cover: 1
  Zero half: 6
  RLT: 1
  Lazy constraints: 204

Explored 11759 nodes (129876 simplex iterations) in 18.59 seconds
Thread count was 12 (of 12 available processors)

Solution count 5: 1184.97 1258.62 1290.5 ... 1372.37

Optimal solution found (tolerance 1.00e-04)
Best objective 1.184971070198e+03, best bound 1.184971070198e+03, gap 0.0000%

User-callback calls 27975, time in user-callback 12.02 sec
/projects/academic/josewalt/caigao/RRARP_BD/BendersDecomp/ret/model_outs/n_21_h_6_algo_4.out
 =====>>>>> Solution is written to file in <../ret/model_outs> !!!
===>> All Done!
